! rks pbe sto-3g

* xyz 0 1
H 0.0 0.0 0.0
*
